# Generated by ConicBenchmarkUtilities.jl
VER
2

OBJSENSE
MIN

VAR
159 1
F 159

INT
40
26
27
28
29
30
31
32
33
34
35
36
37
38
39
40
41
42
43
44
45
46
47
48
49
50
51
52
53
54
55
56
57
58
59
60
61
62
63
64
65

CON
488 432
L= 1
L= 1
L= 1
L= 1
L= 1
L= 1
L= 1
L= 1
L= 1
L= 1
L= 1
L= 1
L= 1
L= 1
L= 1
L= 1
L= 1
L= 1
L= 1
L= 1
L= 1
L= 1
EXP 3
L+ 1
L+ 1
L+ 1
EXP 3
L+ 1
L+ 1
L+ 1
L+ 1
L+ 1
L+ 1
L+ 1
EXP 3
L+ 1
L+ 1
L+ 1
L+ 1
L+ 1
L+ 1
L+ 1
L+ 1
L+ 1
L+ 1
EXP 3
L+ 1
L+ 1
L+ 1
EXP 3
L+ 1
L+ 1
L+ 1
EXP 3
L+ 1
L+ 1
L+ 1
L+ 1
L+ 1
L+ 1
L+ 1
L+ 1
L+ 1
L+ 1
L+ 1
EXP 3
L+ 1
L+ 1
L+ 1
L+ 1
L+ 1
L+ 1
L+ 1
L+ 1
L+ 1
L+ 1
EXP 3
L+ 1
L+ 1
L+ 1
EXP 3
L+ 1
L+ 1
L+ 1
EXP 3
L+ 1
EXP 3
L+ 1
L+ 1
L+ 1
L+ 1
L+ 1
L+ 1
L+ 1
L+ 1
L+ 1
L+ 1
L+ 1
L+ 1
EXP 3
L+ 1
L+ 1
L+ 1
EXP 3
L+ 1
L+ 1
L+ 1
EXP 3
L+ 1
L+ 1
L+ 1
EXP 3
L+ 1
L+ 1
L+ 1
EXP 3
L+ 1
L+ 1
L+ 1
L+ 1
L+ 1
L+ 1
L+ 1
EXP 3
L+ 1
L+ 1
L+ 1
L+ 1
L+ 1
L+ 1
L+ 1
L+ 1
L+ 1
L+ 1
EXP 3
L+ 1
L+ 1
L+ 1
EXP 3
L+ 1
L+ 1
L+ 1
EXP 3
L+ 1
L+ 1
L+ 1
L+ 1
L+ 1
L+ 1
L+ 1
L+ 1
L+ 1
L+ 1
L+ 1
EXP 3
L+ 1
L+ 1
L+ 1
L+ 1
L+ 1
L+ 1
L+ 1
L+ 1
L+ 1
L+ 1
EXP 3
L+ 1
L+ 1
L+ 1
EXP 3
L+ 1
L+ 1
L+ 1
EXP 3
L+ 1
EXP 3
L+ 1
L+ 1
L+ 1
L+ 1
L+ 1
L+ 1
L+ 1
L+ 1
L+ 1
L+ 1
L+ 1
L+ 1
EXP 3
L+ 1
L+ 1
L+ 1
EXP 3
L+ 1
L+ 1
L+ 1
EXP 3
L+ 1
L+ 1
L+ 1
L= 1
L+ 1
L+ 1
L+ 1
L+ 1
L+ 1
L+ 1
L+ 1
L+ 1
L+ 1
L+ 1
L+ 1
L+ 1
L+ 1
L+ 1
L+ 1
L+ 1
L+ 1
L+ 1
L+ 1
L+ 1
L+ 1
L+ 1
L+ 1
L+ 1
L+ 1
L+ 1
L+ 1
L+ 1
L+ 1
L+ 1
L+ 1
L+ 1
L+ 1
L+ 1
L+ 1
L+ 1
L+ 1
L+ 1
L+ 1
L+ 1
L+ 1
L+ 1
L+ 1
L+ 1
L+ 1
L+ 1
L+ 1
L+ 1
L+ 1
L+ 1
L+ 1
L+ 1
L+ 1
L+ 1
L+ 1
L+ 1
L+ 1
L+ 1
L+ 1
L+ 1
L+ 1
L+ 1
L+ 1
L+ 1
L+ 1
L+ 1
L+ 1
L+ 1
L+ 1
L+ 1
L+ 1
L+ 1
L+ 1
L+ 1
L+ 1
L+ 1
L+ 1
L+ 1
L+ 1
L+ 1
L+ 1
L+ 1
L+ 1
L+ 1
L+ 1
L+ 1
L+ 1
L+ 1
L+ 1
L+ 1
L+ 1
L+ 1
L+ 1
L+ 1
L+ 1
L+ 1
L+ 1
L+ 1
L+ 1
L+ 1
L+ 1
L+ 1
L+ 1
L+ 1
L+ 1
L+ 1
L+ 1
L+ 1
L+ 1
L+ 1
L+ 1
L+ 1
L+ 1
L+ 1
L+ 1
L+ 1
L+ 1
L+ 1
L+ 1
L+ 1
L+ 1
L+ 1
L+ 1
L+ 1
L+ 1
L+ 1
L+ 1
L+ 1
L+ 1
L+ 1
L+ 1
L+ 1
L+ 1
L+ 1
L+ 1
L+ 1
L+ 1
L+ 1
L+ 1
L+ 1
L+ 1
L+ 1
L+ 1
L+ 1
L+ 1
L+ 1
L+ 1
L+ 1
L+ 1
L+ 1
L+ 1
L+ 1
L+ 1
L+ 1
L+ 1
L+ 1
L+ 1
L+ 1
L+ 1
L+ 1
L+ 1
L+ 1
L+ 1
L+ 1
L+ 1
L+ 1
L+ 1
L+ 1
L+ 1
L+ 1
L+ 1
L+ 1
L+ 1
L+ 1
L+ 1
L+ 1
L+ 1
L+ 1
L+ 1
L+ 1
L+ 1
L+ 1
L+ 1
L+ 1
L+ 1
L+ 1
L+ 1
L+ 1
L+ 1
L+ 1
L+ 1
L+ 1
L+ 1
L+ 1
L+ 1
L+ 1
L+ 1
L+ 1
L+ 1
L+ 1
L+ 1
L+ 1
L+ 1
L+ 1
L+ 1
L+ 1
L+ 1
L+ 1
L+ 1
L+ 1
L+ 1
L+ 1
L+ 1
L+ 1
L+ 1
L+ 1
L+ 1
L+ 1
L+ 1
L+ 1
L+ 1
L+ 1
L+ 1
L+ 1
L+ 1
L+ 1
L+ 1
L+ 1
L+ 1
L+ 1
L+ 1

OBJACOORD
1
66 -1.0

ACOORD
860
0 0 -1.0
1 0 1.0
311 0 1.0
312 0 -1.0
0 1 5.0
3 1 -1.0
318 1 1.0
0 2 -2.0
46 2 0.5
47 2 -0.5
49 2 -1.0
323 2 1.0
324 2 -1.0
0 3 -10.0
85 3 1.0
86 3 -1.0
88 3 -1.0
341 3 1.0
342 3 -1.0
0 4 -5.0
8 4 -1.0
343 4 1.0
344 4 -1.0
0 5 40.0
83 5 -1.0
84 5 1.0
85 5 -1.0
86 5 1.0
89 5 -1.0
351 5 1.0
0 6 15.0
93 6 -1.0
95 6 -1.0
352 6 1.0
0 7 10.0
99 7 -1.0
101 7 -1.0
353 7 1.0
0 8 30.0
105 8 -1.0
109 8 -1.0
112 8 -1.0
354 8 1.0
0 9 35.0
113 9 -1.0
114 9 1.0
116 9 -1.0
355 9 1.0
0 10 20.0
117 10 -1.0
118 10 1.0
120 10 -1.0
356 10 1.0
0 11 25.0
124 11 -1.0
126 11 -1.0
357 11 1.0
0 12 15.0
130 12 -1.0
132 12 -1.0
358 12 1.0
0 13 30.0
14 13 -1.0
366 13 1.0
0 14 -1.0
163 14 0.5
164 14 -0.5
166 14 -1.0
371 14 1.0
372 14 -1.0
0 15 -5.0
202 15 1.0
203 15 -1.0
205 15 -1.0
389 15 1.0
390 15 -1.0
0 16 -1.0
19 16 -1.0
391 16 1.0
392 16 -1.0
0 17 120.0
200 17 -1.0
201 17 1.0
202 17 -1.0
203 17 1.0
206 17 -1.0
399 17 1.0
0 18 140.0
210 18 -1.0
212 18 -1.0
400 18 1.0
0 19 90.0
216 19 -1.0
218 19 -1.0
401 19 1.0
0 20 80.0
222 20 -1.0
226 20 -1.0
229 20 -1.0
402 20 1.0
0 21 285.0
230 21 -1.0
231 21 1.0
233 21 -1.0
403 21 1.0
0 22 290.0
234 22 -1.0
235 22 1.0
237 22 -1.0
404 22 1.0
0 23 280.0
241 23 -1.0
243 23 -1.0
405 23 1.0
0 24 290.0
247 24 -1.0
249 24 -1.0
406 24 1.0
0 25 350.0
253 25 -1.0
255 25 -1.0
407 25 1.0
0 26 -5.0
25 26 -1.0
26 26 40.0
27 26 3.71357206670431
256 26 1.0
306 26 1.0
307 26 1.0
308 26 1.0
408 26 1.0
409 26 -1.0
0 27 -8.0
31 27 -1.0
32 27 40.0
33 27 4.45628648004517
256 27 1.0
306 27 1.0
307 27 1.0
308 27 1.0
410 27 1.0
411 27 -1.0
0 28 -6.0
34 28 -1.0
35 28 -1.0
36 28 4.45628648004517
37 28 3.34221486003388
257 28 -1.0
266 28 1.0
267 28 1.0
306 28 -1.0
412 28 1.0
413 28 -1.0
0 29 -10.0
41 29 -1.0
42 29 4.45628648004517
43 29 2.54515263975353
260 29 -1.0
268 29 1.0
307 29 -1.0
414 29 1.0
415 29 -1.0
0 30 -6.0
44 30 -1.0
45 30 -1.0
46 30 -1.0
47 30 -1.0
48 30 4.45628648004517
49 30 30.0
50 30 15.0
262 30 -1.0
269 30 1.0
270 30 1.0
271 30 1.0
308 30 -1.0
416 30 1.0
417 30 -1.0
0 31 -7.0
54 31 -1.0
55 31 3.34221486003388
56 31 1.83548069293539
257 31 1.0
258 31 -1.0
266 31 -1.0
272 31 1.0
418 31 1.0
419 31 -1.0
0 32 -4.0
60 32 -1.0
61 32 3.34221486003388
62 32 1.32154609891348
257 32 1.0
259 32 -1.0
267 32 -1.0
273 32 1.0
420 32 1.0
421 32 -1.0
0 33 -5.0
66 33 -1.0
67 33 2.54515263975353
68 33 1.26558121681553
260 33 1.0
261 33 -1.0
268 33 -1.0
274 33 1.0
275 33 1.0
422 33 1.0
423 33 -1.0
0 34 -2.0
69 34 -1.0
70 34 -1.0
71 34 15.0
72 34 13.5
262 34 1.0
263 34 -1.0
269 34 -1.0
424 34 1.0
425 34 -1.0
0 35 -4.0
73 35 -1.0
74 35 -1.0
75 35 15.0
76 35 9.0
262 35 1.0
264 35 -1.0
270 35 -1.0
276 35 1.0
277 35 1.0
426 35 1.0
427 35 -1.0
0 36 -3.0
80 36 -1.0
81 36 15.0
82 36 3.04984759446376
262 36 1.0
265 36 -1.0
271 36 -1.0
278 36 1.0
279 36 1.0
280 36 1.0
428 36 1.0
429 36 -1.0
0 37 -7.0
83 37 -1.0
84 37 -1.0
85 37 -1.0
86 37 -1.0
87 37 1.83548069293539
88 37 20.0
89 37 20.0
258 37 1.0
272 37 -1.0
430 37 1.0
431 37 -1.0
0 38 -3.0
93 38 -1.0
94 38 1.32154609891348
95 38 0.842233385663186
259 38 1.0
273 38 -1.0
432 38 1.0
433 38 -1.0
0 39 -2.0
99 39 -1.0
100 39 1.26558121681553
101 39 0.572481933717686
261 39 1.0
274 39 -1.0
434 39 1.0
435 39 -1.0
0 40 -4.0
105 40 -1.0
109 40 -1.0
110 40 1.26558121681553
111 40 33.5
112 40 2.30162356062425
261 40 1.0
263 40 1.0
275 40 -1.0
436 40 1.0
437 40 -1.0
0 41 -2.0
113 41 -1.0
114 41 -1.0
115 41 9.0
116 41 9.0
264 41 1.0
276 41 -1.0
438 41 1.0
439 41 -1.0
0 42 -3.0
117 42 -1.0
118 42 -1.0
119 42 9.0
120 42 9.0
264 42 1.0
277 42 -1.0
440 42 1.0
441 42 -1.0
0 43 -5.0
124 43 -1.0
125 43 3.04984759446376
126 43 1.04900943706034
265 43 1.0
278 43 -1.0
442 43 1.0
443 43 -1.0
0 44 -2.0
130 44 -1.0
131 44 3.04984759446376
132 44 1.11894339953103
265 44 1.0
279 44 -1.0
444 44 1.0
445 44 -1.0
0 45 -1.0
136 45 -1.0
137 45 3.04984759446376
138 45 1.18887736200171
265 45 1.0
280 45 -1.0
281 45 -1.0
309 45 1.0
310 45 1.0
446 45 1.0
447 45 -1.0
0 46 -2.0
142 46 -1.0
143 46 1.18887736200171
144 46 0.78338879230327
281 46 1.0
309 46 -1.0
448 46 1.0
449 46 -1.0
0 47 -9.0
148 47 -1.0
149 47 1.18887736200171
150 47 0.940066550763924
281 47 1.0
310 47 -1.0
450 47 1.0
451 47 -1.0
0 48 -5.0
151 48 -1.0
152 48 -1.0
153 48 0.940066550763924
154 48 0.705049913072943
282 48 -1.0
291 48 1.0
292 48 1.0
452 48 1.0
453 48 -1.0
0 49 -2.0
158 49 -1.0
159 49 0.940066550763924
160 49 0.994083415506506
285 49 -1.0
295 49 1.0
454 49 1.0
455 49 -1.0
0 50 -10.0
161 50 -1.0
162 50 -1.0
163 50 -1.0
164 50 -1.0
165 50 0.940066550763924
166 50 30.0
167 50 15.0
287 50 -1.0
298 50 1.0
299 50 1.0
300 50 1.0
456 50 1.0
457 50 -1.0
0 51 -4.0
171 51 -1.0
172 51 0.705049913072943
173 51 0.666992981045719
282 51 1.0
283 51 -1.0
291 51 -1.0
293 51 1.0
458 51 1.0
459 51 -1.0
0 52 -7.0
177 52 -1.0
178 52 0.705049913072943
179 52 0.480234946352917
282 52 1.0
284 52 -1.0
292 52 -1.0
294 52 1.0
460 52 1.0
461 52 -1.0
0 53 -4.0
183 53 -1.0
184 53 0.994083415506506
185 53 0.690184503917672
285 53 1.0
286 53 -1.0
295 53 -1.0
296 53 1.0
297 53 1.0
462 53 1.0
463 53 -1.0
0 54 -2.0
186 54 -1.0
187 54 -1.0
188 54 15.0
189 54 13.5
287 54 1.0
288 54 -1.0
298 54 -1.0
464 54 1.0
465 54 -1.0
0 55 -8.0
190 55 -1.0
191 55 -1.0
192 55 15.0
193 55 9.0
287 55 1.0
289 55 -1.0
299 55 -1.0
301 55 1.0
302 55 1.0
466 55 1.0
467 55 -1.0
0 56 -9.0
197 56 -1.0
198 56 15.0
199 56 3.04984759446376
287 56 1.0
290 56 -1.0
300 56 -1.0
303 56 1.0
304 56 1.0
305 56 1.0
468 56 1.0
469 56 -1.0
0 57 -3.0
200 57 -1.0
201 57 -1.0
202 57 -1.0
203 57 -1.0
204 57 0.666992981045719
205 57 25.0
206 57 25.0
283 57 1.0
293 57 -1.0
470 57 1.0
471 57 -1.0
0 58 -5.0
210 58 -1.0
211 58 0.480234946352917
212 58 0.392200822712722
284 58 1.0
294 58 -1.0
472 58 1.0
473 58 -1.0
0 59 -5.0
216 59 -1.0
217 59 0.690184503917672
218 59 0.367386387824208
286 59 1.0
296 59 -1.0
474 59 1.0
475 59 -1.0
0 60 -6.0
222 60 -1.0
226 60 -1.0
227 60 0.690184503917672
228 60 38.5
229 60 2.3895954367396
286 60 1.0
288 60 1.0
297 60 -1.0
476 60 1.0
477 60 -1.0
0 61 -2.0
230 61 -1.0
231 61 -1.0
232 61 9.0
233 61 9.0
289 61 1.0
301 61 -1.0
478 61 1.0
479 61 -1.0
0 62 -6.0
234 62 -1.0
235 62 -1.0
236 62 9.0
237 62 9.0
289 62 1.0
302 62 -1.0
480 62 1.0
481 62 -1.0
0 63 -3.0
241 63 -1.0
242 63 3.04984759446376
243 63 1.04900943706034
290 63 1.0
303 63 -1.0
482 63 1.0
483 63 -1.0
0 64 -5.0
247 64 -1.0
248 64 3.04984759446376
249 64 1.11894339953103
290 64 1.0
304 64 -1.0
484 64 1.0
485 64 -1.0
0 65 -9.0
253 65 -1.0
254 65 3.04984759446376
255 65 1.18887736200171
290 65 1.0
305 65 -1.0
486 65 1.0
487 65 -1.0
0 66 -1.0
1 67 -1.0
22 67 1.0
26 67 -1.0
313 67 1.0
1 68 -1.0
28 68 1.0
32 68 -1.0
314 68 1.0
2 69 -1.0
25 69 -1.0
27 69 -1.0
315 69 1.0
2 70 -1.0
31 70 -1.0
33 70 -1.0
316 70 1.0
2 71 1.0
3 71 1.0
317 71 1.0
3 72 -1.0
4 72 1.0
319 72 1.0
4 73 -1.0
34 73 0.75
35 73 -0.75
36 73 -1.0
320 73 1.0
4 74 -1.0
38 74 1.0
42 74 -1.0
321 74 1.0
4 75 -1.0
44 75 1.0
45 75 -1.0
48 75 -1.0
322 75 1.0
5 76 1.0
34 76 -1.0
35 76 1.0
37 76 -1.0
325 76 1.0
5 77 -1.0
51 77 1.0
55 77 -1.0
328 77 1.0
5 78 -1.0
57 78 1.0
61 78 -1.0
329 78 1.0
6 79 1.0
44 79 -1.0
45 79 1.0
46 79 -1.0
47 79 1.0
50 79 -1.0
327 79 1.0
6 80 -1.0
69 80 0.9
70 80 -0.9
71 80 -1.0
330 80 1.0
6 81 -1.0
73 81 0.6
74 81 -0.6
75 81 -1.0
331 81 1.0
6 82 -1.0
77 82 1.0
81 82 -1.0
332 82 1.0
7 83 1.0
66 83 -1.0
68 83 -1.0
335 83 1.0
7 84 -1.0
96 84 1.0
100 84 -1.0
339 84 1.0
7 85 -1.0
102 85 1.0
110 85 -1.0
340 85 1.0
8 86 -1.0
69 86 -1.0
70 86 1.0
72 86 -1.0
336 86 1.0
8 87 1.0
106 87 1.0
111 87 -1.0
345 87 1.0
9 88 1.0
73 88 -1.0
74 88 1.0
76 88 -1.0
337 88 1.0
9 89 -1.0
113 89 1.0
114 89 -1.0
115 89 -1.0
346 89 1.0
9 90 -1.0
117 90 1.0
118 90 -1.0
119 90 -1.0
347 90 1.0
10 91 1.0
80 91 -1.0
82 91 -1.0
338 91 1.0
10 92 -1.0
121 92 1.0
125 92 -1.0
348 92 1.0
10 93 -1.0
127 93 1.0
131 93 -1.0
349 93 1.0
10 94 -1.0
133 94 1.0
137 94 -1.0
350 94 1.0
11 95 1.0
136 95 -1.0
138 95 -1.0
359 95 1.0
11 96 -1.0
12 96 1.0
360 96 1.0
12 97 -1.0
139 97 1.0
143 97 -1.0
361 97 1.0
12 98 -1.0
145 98 1.0
149 98 -1.0
362 98 1.0
13 99 -1.0
142 99 -1.0
144 99 -1.0
363 99 1.0
13 100 -1.0
148 100 -1.0
150 100 -1.0
364 100 1.0
13 101 1.0
14 101 1.0
365 101 1.0
14 102 -1.0
15 102 1.0
367 102 1.0
15 103 -1.0
151 103 0.75
152 103 -0.75
153 103 -1.0
368 103 1.0
15 104 -1.0
155 104 1.0
159 104 -1.0
369 104 1.0
15 105 -1.0
161 105 1.0
162 105 -1.0
165 105 -1.0
370 105 1.0
16 106 1.0
151 106 -1.0
152 106 1.0
154 106 -1.0
373 106 1.0
16 107 -1.0
168 107 1.0
172 107 -1.0
376 107 1.0
16 108 -1.0
174 108 1.0
178 108 -1.0
377 108 1.0
17 109 1.0
161 109 -1.0
162 109 1.0
163 109 -1.0
164 109 1.0
167 109 -1.0
375 109 1.0
17 110 -1.0
186 110 0.9
187 110 -0.9
188 110 -1.0
378 110 1.0
17 111 -1.0
190 111 0.6
191 111 -0.6
192 111 -1.0
379 111 1.0
17 112 -1.0
194 112 1.0
198 112 -1.0
380 112 1.0
18 113 1.0
183 113 -1.0
185 113 -1.0
383 113 1.0
18 114 -1.0
213 114 1.0
217 114 -1.0
387 114 1.0
18 115 -1.0
219 115 1.0
227 115 -1.0
388 115 1.0
19 116 -1.0
186 116 -1.0
187 116 1.0
189 116 -1.0
384 116 1.0
19 117 1.0
223 117 1.0
228 117 -1.0
393 117 1.0
20 118 1.0
190 118 -1.0
191 118 1.0
193 118 -1.0
385 118 1.0
20 119 -1.0
230 119 1.0
231 119 -1.0
232 119 -1.0
394 119 1.0
20 120 -1.0
234 120 1.0
235 120 -1.0
236 120 -1.0
395 120 1.0
21 121 1.0
197 121 -1.0
199 121 -1.0
386 121 1.0
21 122 -1.0
238 122 1.0
242 122 -1.0
396 122 1.0
21 123 -1.0
244 123 1.0
248 123 -1.0
397 123 1.0
21 124 -1.0
250 124 1.0
254 124 -1.0
398 124 1.0
24 125 1.0
25 125 1.0
30 126 1.0
31 126 1.2
40 127 1.0
41 127 1.5
41 128 -1.0
43 128 -1.0
63 128 1.0
67 128 -1.0
326 128 1.0
53 129 1.0
54 129 1.25
54 130 -1.0
56 130 -1.0
83 130 0.9
84 130 -0.9
87 130 -1.0
333 130 1.0
59 131 1.0
60 131 0.9
60 132 -1.0
62 132 -1.0
90 132 1.0
94 132 -1.0
334 132 1.0
65 133 1.0
66 133 1.0
79 134 1.0
80 134 1.1
92 135 1.0
93 135 1.0
98 136 1.0
99 136 0.7
104 137 1.0
105 137 0.65
108 138 1.0
109 138 0.65
123 139 1.0
124 139 0.75
129 140 1.0
130 140 0.8
135 141 1.0
136 141 0.85
141 142 1.0
142 142 1.0
147 143 1.0
148 143 1.2
157 144 1.0
158 144 1.5
158 145 -1.0
160 145 -1.0
180 145 1.0
184 145 -1.0
374 145 1.0
170 146 1.0
171 146 1.25
171 147 -1.0
173 147 -1.0
200 147 0.9
201 147 -0.9
204 147 -1.0
381 147 1.0
176 148 1.0
177 148 0.9
177 149 -1.0
179 149 -1.0
207 149 1.0
211 149 -1.0
382 149 1.0
182 150 1.0
183 150 1.0
196 151 1.0
197 151 1.1
209 152 1.0
210 152 1.0
215 153 1.0
216 153 0.7
221 154 1.0
222 154 0.65
225 155 1.0
226 155 0.65
240 156 1.0
241 156 0.75
246 157 1.0
247 157 0.8
252 158 1.0
253 158 0.85

BCOORD
168
22 1.0
23 1.0
25 1.0
28 1.0
29 1.0
31 1.0
34 1.0
35 1.0
38 1.0
39 1.0
41 1.0
44 1.0
45 1.0
46 1.0
47 1.0
51 1.0
52 1.0
54 1.0
57 1.0
58 1.0
60 1.0
63 1.0
64 1.0
66 1.0
69 1.0
70 1.0
73 1.0
74 1.0
77 1.0
78 1.0
80 1.0
83 1.0
84 1.0
85 1.0
86 1.0
90 1.0
91 1.0
93 1.0
96 1.0
97 1.0
99 1.0
102 1.0
103 1.0
105 1.0
106 1.0
107 1.0
109 1.0
113 1.0
114 1.0
117 1.0
118 1.0
121 1.0
122 1.0
124 1.0
127 1.0
128 1.0
130 1.0
133 1.0
134 1.0
136 1.0
139 1.0
140 1.0
142 1.0
145 1.0
146 1.0
148 1.0
151 1.0
152 1.0
155 1.0
156 1.0
158 1.0
161 1.0
162 1.0
163 1.0
164 1.0
168 1.0
169 1.0
171 1.0
174 1.0
175 1.0
177 1.0
180 1.0
181 1.0
183 1.0
186 1.0
187 1.0
190 1.0
191 1.0
194 1.0
195 1.0
197 1.0
200 1.0
201 1.0
202 1.0
203 1.0
207 1.0
208 1.0
210 1.0
213 1.0
214 1.0
216 1.0
219 1.0
220 1.0
222 1.0
223 1.0
224 1.0
226 1.0
230 1.0
231 1.0
234 1.0
235 1.0
238 1.0
239 1.0
241 1.0
244 1.0
245 1.0
247 1.0
250 1.0
251 1.0
253 1.0
256 -1.0
312 40.0
324 30.0
342 20.0
344 20.0
372 30.0
390 25.0
392 25.0
409 1.0
411 1.0
413 1.0
415 1.0
417 1.0
419 1.0
421 1.0
423 1.0
425 1.0
427 1.0
429 1.0
431 1.0
433 1.0
435 1.0
437 1.0
439 1.0
441 1.0
443 1.0
445 1.0
447 1.0
449 1.0
451 1.0
453 1.0
455 1.0
457 1.0
459 1.0
461 1.0
463 1.0
465 1.0
467 1.0
469 1.0
471 1.0
473 1.0
475 1.0
477 1.0
479 1.0
481 1.0
483 1.0
485 1.0
487 1.0
